\ This file has been generated by DOcplex
\ ENCODING=ISO-8859-1
\Problem name: Orandom21542_6.lp

Minimize
 obj: - 32.000000081382 x0 - 16.000000040691 x1 - 8.000000020346 x2
      - 28.000000081382 x3 - 14.000000040691 x4 - 7.000000020346 x5 + [
      16.000000046504 x0^2 + 16.000000046504 x0*x1 + 8.000000023252 x0*x2
      + 32.000000093009 x0*x3 + 16.000000046504 x0*x4 + 8.000000023252 x0*x5
      + 4.000000011626 x1^2 + 4.000000011626 x1*x2 + 16.000000046504 x1*x3
      + 8.000000023252 x1*x4 + 4.000000011626 x1*x5 + 1.000000002907 x2^2
      + 8.000000023252 x2*x3 + 4.000000011626 x2*x4 + 2.000000005813 x2*x5
      + 48.000000046504 x3^2 + 48.000000046504 x3*x4 + 24.000000023252 x3*x5
      + 12.000000011626 x4^2 + 12.000000011626 x4*x5 + 3.000000002907 x5^2 ]/2 +
      24.500000071210
Subject To

Bounds
 0 <= x0 <= 1
 0 <= x1 <= 1
 0 <= x2 <= 1
 0 <= x3 <= 1
 0 <= x4 <= 1
 0 <= x5 <= 1

Binaries
 x0 x1 x2 x3 x4 x5
End
